<number of tasks>
20

<cycle time>
1000

<order strength>
0,2


<task times>
1 531
2 703
3 562
4 491
5 694
6 533
7 550
8 537
9 468
10 628
11 608
12 307
13 435
14 665
15 435
16 418
17 706
18 504
19 613
20 328

<precedence relations>
1,4
1,5
1,7
2,6
4,9
4,13
6,12
6,14
7,8
7,10
7,11
8,16
11,18
12,17
14,15
17,19
17,20

<end>
